p cnf 30 145
1 2 3 0
4 5 6 0
7 8 9 0
10 11 12 0
13 14 15 0
16 17 18 0
19 20 21 0
22 23 24 0
25 26 27 0
28 29 30 0
-1 -4 0
-1 -7 0
-1 -10 0
-1 -13 0
-1 -16 0
-1 -19 0
-1 -22 0
-1 -25 0
-1 -28 0
-4 -7 0
-4 -10 0
-4 -13 0
-4 -16 0
-4 -19 0
-4 -22 0
-4 -25 0
-4 -28 0
-7 -10 0
-7 -13 0
-7 -16 0
-7 -19 0
-7 -22 0
-7 -25 0
-7 -28 0
-10 -13 0
-10 -16 0
-10 -19 0
-10 -22 0
-10 -25 0
-10 -28 0
-13 -16 0
-13 -19 0
-13 -22 0
-13 -25 0
-13 -28 0
-16 -19 0
-16 -22 0
-16 -25 0
-16 -28 0
-19 -22 0
-19 -25 0
-19 -28 0
-22 -25 0
-22 -28 0
-25 -28 0
-2 -5 0
-2 -8 0
-2 -11 0
-2 -14 0
-2 -17 0
-2 -20 0
-2 -23 0
-2 -26 0
-2 -29 0
-5 -8 0
-5 -11 0
-5 -14 0
-5 -17 0
-5 -20 0
-5 -23 0
-5 -26 0
-5 -29 0
-8 -11 0
-8 -14 0
-8 -17 0
-8 -20 0
-8 -23 0
-8 -26 0
-8 -29 0
-11 -14 0
-11 -17 0
-11 -20 0
-11 -23 0
-11 -26 0
-11 -29 0
-14 -17 0
-14 -20 0
-14 -23 0
-14 -26 0
-14 -29 0
-17 -20 0
-17 -23 0
-17 -26 0
-17 -29 0
-20 -23 0
-20 -26 0
-20 -29 0
-23 -26 0
-23 -29 0
-26 -29 0
-3 -6 0
-3 -9 0
-3 -12 0
-3 -15 0
-3 -18 0
-3 -21 0
-3 -24 0
-3 -27 0
-3 -30 0
-6 -9 0
-6 -12 0
-6 -15 0
-6 -18 0
-6 -21 0
-6 -24 0
-6 -27 0
-6 -30 0
-9 -12 0
-9 -15 0
-9 -18 0
-9 -21 0
-9 -24 0
-9 -27 0
-9 -30 0
-12 -15 0
-12 -18 0
-12 -21 0
-12 -24 0
-12 -27 0
-12 -30 0
-15 -18 0
-15 -21 0
-15 -24 0
-15 -27 0
-15 -30 0
-18 -21 0
-18 -24 0
-18 -27 0
-18 -30 0
-21 -24 0
-21 -27 0
-21 -30 0
-24 -27 0
-24 -30 0
-27 -30 0
